language Essence 1.3

letting class be
        function(1 --> 4, 2 --> 4, 3 --> 2, 4 --> 4, 5 --> 1, 6 --> 3, 7 --> 1, 8 --> 1, 9 --> 3, 10 --> 3, 11 --> 3,
                 12 --> 3, 13 --> 3, 14 --> 4, 15 --> 4, 16 --> 1, 17 --> 2, 18 --> 4, 19 --> 2, 20 --> 4, 21 --> 3,
                 22 --> 2, 23 --> 1)
letting deck_length be 100
letting deck_width be 37
letting length be
        function(1 --> 1, 2 --> 1, 3 --> 1, 4 --> 1, 5 --> 1, 6 --> 1, 7 --> 1, 8 --> 1, 9 --> 1, 10 --> 1, 11 --> 2,
                 12 --> 1, 13 --> 1, 14 --> 1, 15 --> 1, 16 --> 9, 17 --> 1, 18 --> 1, 19 --> 2, 20 --> 2, 21 --> 28,
                 22 --> 1, 23 --> 1)
letting n_classes be 4
letting n_containers be 23
letting separation be function({2, 4} --> 72)
letting width be
        function(1 --> 7, 2 --> 10, 3 --> 20, 4 --> 35, 5 --> 22, 6 --> 32, 7 --> 25, 8 --> 28, 9 --> 11, 10 --> 13,
                 11 --> 13, 12 --> 23, 13 --> 11, 14 --> 23, 15 --> 5, 16 --> 37, 17 --> 6, 18 --> 29, 19 --> 33,
                 20 --> 6, 21 --> 36, 22 --> 6, 23 --> 21)
